
Gurobi 8.1.1 (win64) logging started 11/26/19 19:01:23

Changed value of parameter LogFile to logs/miss/qp/miss-07-30-0.log
   Prev: gurobi.log  Default: 
Changed value of parameter LogToConsole to 0
   Prev: 1  Min: 0  Max: 1  Default: 1
Changed value of parameter TimeLimit to 3600.0
   Prev: 1e+100  Min: 0.0  Max: 1e+100  Default: 1e+100
Optimize a model with 1 rows, 604 columns and 1 nonzeros
Model has 14 quadratic constraints
Variable types: 0 continuous, 604 integer (604 binary)
Coefficient statistics:
  Matrix range     [1e+00, 1e+00]
  QMatrix range    [1e+00, 1e+00]
  Objective range  [1e+00, 1e+00]
  Bounds range     [1e+00, 1e+00]
  RHS range        [1e+00, 1e+00]
  QRHS range       [1e+00, 1e+00]
Found heuristic solution: objective 604.0000000
Presolve removed 1 rows and 1 columns
Presolve time: 0.01s
Presolved: 0 rows, 603 columns, 0 nonzeros
Variable types: 0 continuous, 603 integer (603 binary)

Root relaxation: objective 1.000000e+00, 0 iterations, 0.00 seconds

    Nodes    |    Current Node    |     Objective Bounds      |     Work
 Expl Unexpl |  Obj  Depth IntInf | Incumbent    BestBd   Gap | It/Node Time

     0     0    2.00000    0    2  604.00000    2.00000   100%     -    0s
H    0     0                      15.0000000    2.00000  86.7%     -    0s
     0     0    2.00000    0    2   15.00000    2.00000  86.7%     -    0s
H    0     0                      14.0000000    2.00000  85.7%     -    0s
     0     2    2.00000    0    2   14.00000    2.00000  85.7%     -    0s
H   30    16                      11.0000000    2.00000  81.8%   1.1    0s
H   95    44                      10.0000000    2.00000  80.0%   1.2    1s
   219    90    2.00000   49    2   10.00000    2.00000  80.0%   1.1    5s
   367   160    2.00000   82    -   10.00000    2.00000  80.0%   1.1   11s
   456   200    2.00000  105    -   10.00000    2.00000  80.0%   1.1   15s
   546   253    2.00000  127    -   10.00000    2.00000  80.0%   1.0   21s
   630   300    2.00000  148    -   10.00000    2.00000  80.0%   1.0   27s
   695   323    2.00000  165    2   10.00000    2.00000  80.0%   1.0   33s
   723   341    2.00000  171    2   10.00000    2.00000  80.0%   1.0   37s
   761   354    2.00000  181    -   10.00000    2.00000  80.0%   1.0   41s
   788   371    2.00000  188    2   10.00000    2.00000  80.0%   1.0   45s
   821   385    2.00000  196    2   10.00000    2.00000  80.0%   1.0   50s
   863   406    2.00000  209    -   10.00000    2.00000  80.0%   1.0   55s
   915   433    2.00000  220    2   10.00000    2.00000  80.0%   1.0   63s
H  956   448                       9.0000000    2.00000  77.8%   1.0   67s
   984   471    2.00000  236    2    9.00000    2.00000  77.8%   1.0   72s
  1014   485    2.00000  244    -    9.00000    2.00000  77.8%   1.0   76s
  1058   497    2.00000  255    -    9.00000    2.00000  77.8%   1.0   81s
H 1059   498                       8.0000000    2.00000  75.0%   1.0   81s
  1090   520    2.00000  263    -    8.00000    2.00000  75.0%   1.0   85s
  1126   536    2.00000  272    2    8.00000    2.00000  75.0%   1.0   90s
  1172   553    2.00000  284    2    8.00000    2.00000  75.0%   1.0   95s
  1243   599    2.00000  302    2    8.00000    2.00000  75.0%   1.0  105s
  1284   611    2.00000  312    2    8.00000    2.00000  75.0%   1.0  110s
  1334   632    2.00000  324    2    8.00000    2.00000  75.0%   1.0  115s
  1365   658    2.00000  330    -    8.00000    2.00000  75.0%   1.0  120s
  1404   673    2.00000  341    -    8.00000    2.00000  75.0%   1.0  126s
  1448   690    2.00000  352    -    8.00000    2.00000  75.0%   1.0  133s
  1502   714    2.00000  365    2    8.00000    2.00000  75.0%   1.0  140s
  1552   739    2.00000  377    -    8.00000    2.00000  75.0%   1.0  146s
  1589   765    2.00000  388    2    8.00000    2.00000  75.0%   1.0  153s
  1632   784    2.00000  399    -    8.00000    2.00000  75.0%   1.0  159s
  1677   804    2.00000  410    -    8.00000    2.00000  75.0%   1.0  167s
  1731   831    2.00000  423    -    8.00000    2.00000  75.0%   1.0  174s
  1785   815    3.50000  439    1    8.00000    2.00000  75.0%   1.0  184s
  1842   870    3.00000  383    -    8.00000    2.00000  75.0%   1.0  185s
  1848   819    4.00000  442    -    8.00000    2.00000  75.0%   1.0  192s
  1909   854    6.00000  455    -    8.00000    2.00000  75.0%   1.0  198s
  1941   845    6.00000  455    -    8.00000    2.00000  75.0%   1.1  208s
  2007   835    7.00000  457    2    8.00000    2.00000  75.0%   1.1  220s
  2063   838     cutoff  461         8.00000    2.00000  75.0%   1.1  232s
  2107   838    3.00000  322    2    8.00000    2.00000  75.0%   1.1  244s
  2151   837    3.00000  151    2    8.00000    2.00000  75.0%   1.1  261s
  2211   842    3.00000  325    2    8.00000    2.00000  75.0%   1.1  277s
  2267   845    3.00000  326    2    8.00000    2.00000  75.0%   1.1  296s
  2338   845    3.00000  327    2    8.00000    2.00000  75.0%   1.1  317s
  2497   986    3.00000  427    2    8.00000    2.00000  75.0%   1.1  333s
  2566  1004    5.00000  442    -    8.00000    3.00000  62.5%   1.1  363s
  2724  1011    7.00000  463    -    8.00000    3.00000  62.5%   1.1  396s
  2868  1060    7.00000  463    -    8.00000    3.00000  62.5%   1.1  420s
  2978  1123    7.00000  463    4    8.00000    3.00000  62.5%   1.1  453s
  3051  1138    7.00000  464    -    8.00000    3.00000  62.5%   1.1  479s
  3057  1143    7.00000  462    -    8.00000    3.00000  62.5%   1.1  480s
  3121  1149    7.00000  465    -    8.00000    3.00000  62.5%   1.1  508s
  3193  1159    7.00000  465    4    8.00000    3.00000  62.5%   1.2  543s
  3302  1178    7.00000  466    -    8.00000    3.00000  62.5%   1.2  578s
  3438  1211    7.00000  466    4    8.00000    3.00000  62.5%   1.2  609s
  3559  1261    7.00000  468    -    8.00000    3.00000  62.5%   1.2  640s
  3666  1296    7.00000  468    4    8.00000    3.00000  62.5%   1.2  666s
  3739  1319    7.00000  469    -    8.00000    3.00000  62.5%   1.2  701s
  3865  1363    7.00000  469    4    8.00000    3.00000  62.5%   1.2  731s
  3929  1399    7.00000  470    -    8.00000    3.00000  62.5%   1.2  768s
  4044  1409    7.00000  470    -    8.00000    3.00000  62.5%   1.2  804s
  4084  1438    4.00000  367    -    8.00000    3.00000  62.5%   1.2  805s
  4123  1439    7.00000  473    -    8.00000    3.00000  62.5%   1.2  834s
  4183  1453    7.00000  473    4    8.00000    3.00000  62.5%   1.2  874s
  4306  1548    4.00000  398    -    8.00000    3.00000  62.5%   1.2  875s
  4316  1478    7.00000  474    -    8.00000    3.00000  62.5%   1.2  910s
  4400  1542    7.00000  474    4    8.00000    3.00000  62.5%   1.2  950s
  4547  1625    7.00000  475    -    8.00000    3.00000  62.5%   1.2 1013s
  4698  1652    7.00000  475    4    8.00000    3.00000  62.5%   1.2 1066s
  4839  1720    7.00000  476    -    8.00000    3.00000  62.5%   1.2 1114s
  4945  1770    7.00000  476    4    8.00000    3.00000  62.5%   1.2 1195s
  5048  1806    7.00000  477    -    8.00000    3.00000  62.5%   1.2 1253s
  5231  1927    4.00000  441    -    8.00000    3.00000  62.5%   1.2 1255s
  5241  1922    7.00000  477    4    8.00000    3.00000  62.5%   1.2 1301s
  5537  2240    3.00000  227    2    8.00000    3.00000  62.5%   1.2 1731s
  5539  2241    4.00000  245 7948    8.00000    3.00000  62.5%   1.2 2072s
  5541  2244    3.00000  238    2    8.00000    3.00000  62.5%  12.9 2723s

Explored 5542 nodes (121736 simplex iterations) in 3615.96 seconds
Thread count was 4 (of 4 available processors)

Solution count 7: 8 9 10 ... 604

Time limit reached
Best objective 8.000000000000e+00, best bound 3.000000000000e+00, gap 62.5000%
Warning: Q constraint 0 doesn't have a name
